Minimize
  0 x(1) - 1.8 x(2) - 3.6 x(3) - 5.2 x(4) - 6.6 x(5) - 8.8 x(6) - 10.4 x(7)
   - 12.2 x(8) - 13 x(9) - 14.8 x(10) + 0 x(11) - 11.8 x(12) - 10.8 x(13)
   - 8.8 x(14) - 9.2 x(15) - 7 x(16) - 7.4 x(17) - 5.6 x(18) - 5.6 x(19)
   - 4.8 x(20) - 3 x(21) + [ 2 x(1) ^2 + 2 x(2) ^2 + 2 x(3) ^2
   + 2 x(4) ^2 + 2 x(5) ^2 + 2 x(6) ^2 + 2 x(7) ^2 + 2 x(8) ^2
   + 2 x(9) ^2 + 2 x(10) ^2 + 2 x(12) ^2 + 2 x(13) ^2 + 2 x(14) ^2
   + 2 x(15) ^2 + 2 x(16) ^2 + 2 x(17) ^2 + 2 x(18) ^2 + 2 x(19) ^2
   + 2 x(20) ^2 + 2 x(21) ^2 ] / 2 
Subject To
 QCP_row_for_con1: - x(21) + x(22) + [ x(10) * x(11) ] = 0
 QCP_row_for_con2: - x(20) + x(22) + [ x(9) * x(11) ] = 0
 QCP_row_for_con3: - x(19) + x(22) + [ x(8) * x(11) ] = 0
 QCP_row_for_con4: - x(18) + x(22) + [ x(7) * x(11) ] = 0
 QCP_row_for_con5: - x(17) + x(22) + [ x(6) * x(11) ] = 0
 QCP_row_for_con6: - x(16) + x(22) + [ x(5) * x(11) ] = 0
 QCP_row_for_con7: - x(15) + x(22) + [ x(4) * x(11) ] = 0
 QCP_row_for_con8: - x(14) + x(22) + [ x(3) * x(11) ] = 0
 QCP_row_for_con9: - x(13) + x(22) + [ x(2) * x(11) ] = 0
 QCP_row_for_con10: - x(12) + x(22) + [ x(1) * x(11) ] = 0
Bounds
 -0.5 <= x(1) <= 0.5
 0.4 <= x(2) <= 1.4
 1.3 <= x(3) <= 2.3
 2.1 <= x(4) <= 3.1
 2.8 <= x(5) <= 3.8
 3.9 <= x(6) <= 4.9
 4.7 <= x(7) <= 5.7
 5.6 <= x(8) <= 6.6
 6 <= x(9) <= 7
 6.9 <= x(10) <= 7.9
 -2 <= x(11) <= 2
 5.4 <= x(12) <= 6.4
 4.9 <= x(13) <= 5.9
 3.9 <= x(14) <= 4.9
 4.1 <= x(15) <= 5.1
 3 <= x(16) <= 4
 3.2 <= x(17) <= 4.2
 2.3 <= x(18) <= 3.3
 2.3 <= x(19) <= 3.3
 1.9 <= x(20) <= 2.9
 1 <= x(21) <= 2
 x(22) <= 10
End
